data;


param d:= 100;
param r:=5;
param p:=0.840000;
param M:=1000;
param U:=
         1         1        7.751529e-01
         2         1        2.939260e-01
         3         1        2.035245e-01
         4         1        4.421145e-01
         5         1        6.048233e-01
         6         1        1.178230e+00
         7         1        1.106747e+00
         8         1        3.076831e-01
         9         1       -9.816538e-01
        10         1       -3.956393e-01
        11         1        1.285468e+00
        12         1        4.122443e-01
        13         1       -3.387837e-01
        14         1       -8.624487e-01
        15         1       -2.229705e-01
        16         1       -9.191114e-01
        17         1        9.303802e-01
        18         1       -3.234606e-01
        19         1       -5.039383e-01
        20         1        6.809796e-01
        21         1       -1.952620e+00
        22         1       -1.407892e+00
        23         1       -1.700842e+00
        24         1        3.312738e-01
        25         1       -3.772895e-01
        26         1       -9.499823e-01
        27         1       -2.116535e-01
        28         1        1.536061e-01
        29         1        5.474566e-01
        30         1       -2.860499e-01
        31         1       -1.241860e-01
        32         1       -8.213147e-01
        33         1       -1.851255e+00
        34         1       -4.298592e-01
        35         1        1.565820e+00
        36         1        1.403723e+00
        37         1       -6.860035e-03
        38         1       -1.317227e+00
        39         1       -1.386800e+00
        40         1        4.056148e-02
        41         1       -8.480423e-01
        42         1       -9.653632e-01
        43         1        2.496637e-01
        44         1        5.942043e-01
        45         1        2.727392e-01
        46         1        1.198549e+00
        47         1       -7.309231e-01
        48         1        9.417645e-01
        49         1       -6.682993e-01
        50         1        9.968400e-02
        51         1       -4.989122e-01
        52         1       -1.725661e-02
        53         1        5.280666e-01
        54         1        1.444491e+00
        55         1        1.263050e-01
        56         1       -2.999670e-01
        57         1       -2.766677e-01
        58         1       -1.410283e-01
        59         1       -1.566065e+00
        60         1       -7.826706e-01
        61         1        2.383339e-01
        62         1       -8.455583e-01
        63         1       -4.158684e-02
        64         1       -1.348836e+00
        65         1        1.628612e+00
        66         1        1.735062e+00
        67         1       -1.019741e+00
        68         1       -1.585169e+00
        69         1        4.980995e-01
        70         1        1.732609e+00
        71         1       -4.470680e-01
        72         1        2.459548e-01
        73         1        4.200933e-01
        74         1       -8.561306e-01
        75         1       -1.749045e+00
        76         1        1.113168e+00
        77         1        1.546425e-01
        78         1        1.385996e-01
        79         1        4.645674e-01
        80         1       -1.240472e+00
        81         1       -7.258336e-01
        82         1        4.792318e-01
        83         1       -1.048895e+00
        84         1        8.660854e-02
        85         1       -8.946049e-01
        86         1        4.628957e-02
        87         1        7.529066e-02
        88         1        3.048544e-01
        89         1       -7.166559e-01
        90         1        3.508831e-01
        91         1        9.819051e-01
        92         1       -7.019504e-01
        93         1        6.308558e-01
        94         1       -9.092002e-01
        95         1        1.242000e+00
        96         1       -8.351626e-01
        97         1       -9.207660e-01
        98         1       -7.981007e-01
        99         1       -7.960365e-01
       100         1       -1.076142e+00
         1         2        1.333246e+00
         2         2        1.344095e+00
         3         2       -1.945908e-01
         4         2        1.820975e-01
         5         2        3.961131e-02
         6         2        3.438363e-01
         7         2        5.884150e-01
         8         2       -1.956461e+00
         9         2        7.763648e-02
        10         2       -1.688668e+00
        11         2        1.073994e+00
        12         2        2.742421e-01
        13         2       -2.828872e-01
        14         2        1.701654e+00
        15         2       -6.536165e-01
        16         2        8.840989e-01
        17         2        7.922133e-01
        18         2        2.424375e-01
        19         2        4.434951e-01
        20         2       -1.905025e-02
        21         2       -7.868871e-01
        22         2        1.863818e-01
        23         2       -1.958217e+00
        24         2        3.069336e-01
        25         2        1.459535e+00
        26         2       -4.529827e-01
        27         2        2.465914e-01
        28         2        2.098927e-01
        29         2       -3.688970e-01
        30         2       -2.617155e+00
        31         2       -6.078619e-01
        32         2       -2.271574e-01
        33         2       -6.048798e-02
        34         2       -2.090396e-01
        35         2       -5.722266e-02
        36         2       -1.023511e+00
        37         2        1.469924e+00
        38         2        1.103057e+00
        39         2        2.107379e+00
        40         2        7.209037e-01
        41         2       -7.635722e-02
        42         2        1.548316e+00
        43         2        8.799233e-01
        44         2       -7.344655e-02
        45         2        1.166760e+00
        46         2       -1.772339e+00
        47         2       -3.019595e+00
        48         2       -1.442161e+00
        49         2        2.243469e+00
        50         2       -1.704486e-01
        51         2       -5.558599e-01
        52         2       -1.670011e+00
        53         2        2.220952e+00
        54         2       -7.956375e-01
        55         2        2.903848e-01
        56         2       -7.991850e-01
        57         2       -7.879058e-01
        58         2        2.465792e-01
        59         2        1.655264e-01
        60         2        2.428877e+00
        61         2        1.499023e+00
        62         2       -7.226584e-01
        63         2        1.689684e+00
        64         2        1.012094e+00
        65         2        1.182849e+00
        66         2       -3.866848e-01
        67         2        1.509290e-01
        68         2        6.667106e-01
        69         2        1.316099e+00
        70         2       -1.041781e+00
        71         2       -3.078098e-01
        72         2       -6.105628e-01
        73         2        1.253936e+00
        74         2       -4.396281e-01
        75         2       -2.549205e-01
        76         2       -3.771480e-01
        77         2        1.928561e+00
        78         2        9.477081e-01
        79         2        1.354205e+00
        80         2        2.455513e-01
        81         2       -2.209783e-01
        82         2       -1.538310e-01
        83         2        1.302338e+00
        84         2       -1.192875e+00
        85         2       -2.547598e-01
        86         2        4.937802e-01
        87         2        1.407234e+00
        88         2       -9.300274e-02
        89         2       -9.869568e-01
        90         2        8.279121e-01
        91         2       -6.194858e-01
        92         2        4.008711e-01
        93         2       -1.844323e+00
        94         2        4.841627e-01
        95         2       -1.778828e+00
        96         2        1.051363e-01
        97         2       -5.845205e-01
        98         2        1.355178e+00
        99         2       -1.215900e-01
       100         2        1.005277e+00
         1         3       -3.217945e-01
         2         3        5.620906e-01
         3         3       -3.875195e-01
         4         3        4.828316e-01
         5         3        1.794019e-02
         6         3        2.686133e-01
         7         3        1.258956e+00
         8         3        4.084353e-01
         9         3        2.232456e-02
        10         3        6.430369e-02
        11         3       -7.144497e-02
        12         3       -6.181745e-01
        13         3       -1.828014e-01
        14         3        7.532595e-01
        15         3       -2.786694e-01
        16         3        9.940623e-01
        17         3        4.989924e-01
        18         3        2.290226e+00
        19         3        8.444764e-01
        20         3       -2.592687e+00
        21         3       -1.995768e+00
        22         3       -9.817668e-01
        23         3       -1.035843e+00
        24         3       -6.646141e-01
        25         3       -1.293984e+00
        26         3        1.189605e+00
        27         3       -7.859773e-02
        28         3       -1.678448e+00
        29         3       -7.435587e-02
        30         3       -1.626080e+00
        31         3       -1.242527e+00
        32         3       -9.592378e-01
        33         3        4.579275e-01
        34         3        3.378115e-01
        35         3       -1.001775e+00
        36         3       -9.102727e-01
        37         3       -5.436694e-02
        38         3       -1.051996e+00
        39         3        5.875970e-01
        40         3       -2.778832e-01
        41         3        1.054490e+00
        42         3       -1.553034e+00
        43         3       -4.155867e-02
        44         3       -1.534122e+00
        45         3       -3.041788e-01
        46         3        1.459455e+00
        47         3       -8.693305e-01
        48         3        6.477445e-01
        49         3        8.992456e-01
        50         3       -6.465582e-01
        51         3        6.192979e-01
        52         3       -2.985965e-01
        53         3        3.907954e-01
        54         3        1.631527e+00
        55         3       -1.152910e+00
        56         3        2.695079e-01
        57         3        8.084358e-01
        58         3       -1.549729e+00
        59         3       -3.076408e-01
        60         3        2.488803e-01
        61         3        1.720551e+00
        62         3       -3.165168e-01
        63         3       -1.462579e+00
        64         3       -2.855960e-01
        65         3       -1.724604e+00
        66         3        7.007885e-01
        67         3        1.071602e+00
        68         3        6.083500e-01
        69         3        6.422008e-01
        70         3        5.929961e-01
        71         3       -3.252894e-03
        72         3       -3.810331e-01
        73         3        6.192933e-01
        74         3       -1.461581e+00
        75         3        1.583797e+00
        76         3        2.164156e-01
        77         3        7.385481e-01
        78         3       -5.020948e-01
        79         3       -8.193285e-01
        80         3        1.157161e-01
        81         3       -9.974166e-01
        82         3       -8.730259e-01
        83         3       -3.098655e-01
        84         3       -1.315559e-01
        85         3        1.310858e+00
        86         3        1.016563e-01
        87         3        4.708994e-01
        88         3        6.746519e-01
        89         3        1.477258e+00
        90         3       -1.911562e-01
        91         3        1.029022e+00
        92         3        1.070767e+00
        93         3        3.499079e-01
        94         3        1.864703e+00
        95         3        3.829443e-01
        96         3       -1.819461e-01
        97         3        2.527032e-01
        98         3        4.534626e-01
        99         3        5.123999e-01
       100         3       -1.328194e+00
         1         4        1.629804e-01
         2         4        1.057448e+00
         3         4        2.025117e-01
         4         4       -7.757425e-01
         5         4        3.681523e-01
         6         4       -1.124252e-01
         7         4        1.325060e-02
         8         4        2.273065e-01
         9         4        5.475453e-01
        10         4       -5.523289e-01
        11         4       -1.294935e-01
        12         4        4.492573e-01
        13         4        4.607684e-01
        14         4       -8.580155e-02
        15         4        4.444800e-01
        16         4       -2.608875e-01
        17         4       -1.052352e+00
        18         4       -9.643574e-01
        19         4        3.647689e-02
        20         4       -2.596729e+00
        21         4        2.490791e-01
        22         4        4.440128e-01
        23         4       -3.200567e-01
        24         4       -1.561428e+00
        25         4       -4.703611e-01
        26         4        9.966770e-01
        27         4       -2.392027e-01
        28         4        6.566716e-01
        29         4        1.128433e+00
        30         4        8.074971e-01
        31         4       -6.780946e-01
        32         4       -1.319250e+00
        33         4        1.623335e+00
        34         4        7.545460e-01
        35         4        4.376266e-01
        36         4       -1.886175e+00
        37         4       -4.076261e-01
        38         4        6.626135e-01
        39         4       -5.056303e-01
        40         4        1.779374e+00
        41         4        3.193590e-02
        42         4       -9.849597e-01
        43         4       -5.501852e-01
        44         4        1.104864e+00
        45         4       -4.324703e-01
        46         4        5.988846e-01
        47         4       -1.655595e+00
        48         4       -7.510603e-01
        49         4       -3.783751e-01
        50         4        1.539624e+00
        51         4        2.191726e-01
        52         4       -2.267581e+00
        53         4       -2.049415e+00
        54         4       -8.432004e-02
        55         4       -3.072532e-01
        56         4       -3.476734e-01
        57         4       -6.901112e-01
        58         4        1.096585e+00
        59         4        2.164749e+00
        60         4       -4.122762e-01
        61         4       -1.319869e-01
        62         4        6.971451e-01
        63         4        4.560354e-02
        64         4       -3.852992e-01
        65         4        1.131822e+00
        66         4        1.829631e+00
        67         4       -1.002487e+00
        68         4       -4.164502e-01
        69         4        6.622074e-01
        70         4       -4.760613e-01
        71         4        1.785242e-01
        72         4        6.759525e-01
        73         4        6.703380e-01
        74         4        7.755839e-01
        75         4       -3.203761e-01
        76         4        5.629322e-01
        77         4       -2.773652e-01
        78         4       -1.120490e+00
        79         4        6.805089e-01
        80         4       -1.180330e+00
        81         4        9.619422e-01
        82         4       -1.303461e+00
        83         4        3.254828e-01
        84         4        4.577170e-02
        85         4       -1.154883e+00
        86         4        5.203308e-01
        87         4        6.801386e-01
        88         4       -4.197969e-02
        89         4        3.854930e-01
        90         4        3.792188e-01
        91         4       -1.266232e+00
        92         4        2.157083e+00
        93         4       -4.511725e-01
        94         4        4.328241e-02
        95         4       -5.078236e-01
        96         4       -1.290743e-01
        97         4       -5.575198e-01
        98         4        4.628761e-01
        99         4       -1.344404e-01
       100         4        5.485668e-01
         1         5        1.518355e+00
         2         5        1.478620e-01
         3         5        2.191923e-01
         4         5        5.941279e-01
         5         5       -5.193116e-01
         6         5        4.893957e-01
         7         5       -1.057389e+00
         8         5        6.892952e-01
         9         5       -1.016663e+00
        10         5       -2.175504e+00
        11         5        2.293859e-01
        12         5       -4.083655e-01
        13         5        1.083780e+00
        14         5        6.733496e-02
        15         5        1.682214e+00
        16         5        9.508346e-01
        17         5       -4.234080e-01
        18         5       -3.788923e-02
        19         5        8.293025e-01
        20         5       -4.488833e-01
        21         5        4.382099e-01
        22         5       -1.113442e+00
        23         5        1.812718e-02
        24         5       -1.186591e-01
        25         5       -2.300275e+00
        26         5        1.064699e+00
        27         5       -1.822285e+00
        28         5       -9.015423e-02
        29         5       -8.639349e-01
        30         5        1.039865e+00
        31         5       -1.099326e-01
        32         5        4.892860e-01
        33         5       -1.028466e-01
        34         5       -6.750850e-01
        35         5       -3.586801e-01
        36         5        8.086101e-01
        37         5        8.093639e-01
        38         5        5.665746e-02
        39         5       -2.325969e-01
        40         5       -1.082820e+00
        41         5        1.013916e-01
        42         5        1.115654e+00
        43         5       -1.027910e+00
        44         5        3.681852e-01
        45         5        1.557905e+00
        46         5       -9.536545e-01
        47         5        3.660050e-01
        48         5       -1.718340e+00
        49         5       -1.041492e+00
        50         5        1.365867e-01
        51         5        9.149876e-03
        52         5       -2.394957e-01
        53         5       -2.702549e-01
        54         5       -1.288703e+00
        55         5        1.540110e+00
        56         5        2.910254e-01
        57         5        7.500146e-01
        58         5        3.789332e-01
        59         5       -1.062898e+00
        60         5       -5.519265e-02
        61         5       -8.463779e-01
        62         5       -5.429871e-01
        63         5        1.205866e-01
        64         5       -2.393274e-01
        65         5       -8.454601e-02
        66         5        1.555469e+00
        67         5        6.946883e-01
        68         5        1.868747e-01
        69         5       -1.465077e+00
        70         5       -2.231567e+00
        71         5       -2.374290e+00
        72         5        8.310391e-01
        73         5        3.180685e-01
        74         5       -6.444566e-01
        75         5       -1.011498e+00
        76         5       -2.127311e-02
        77         5        1.184375e+00
        78         5       -4.897643e-01
        79         5       -1.439133e+00
        80         5       -1.399499e+00
        81         5       -6.503853e-01
        82         5       -2.817989e-01
        83         5        4.759651e-01
        84         5        2.095934e+00
        85         5        1.327870e+00
        86         5        1.533183e+00
        87         5        1.396285e-01
        88         5       -1.780176e-01
        89         5        6.606088e-01
        90         5        6.435784e-01
        91         5       -2.767782e+00
        92         5        1.465503e+00
        93         5       -7.038291e-01
        94         5        1.434450e-01
        95         5       -9.341221e-02
        96         5       -1.150196e-01
        97         5       -2.025369e+00
        98         5       -1.148115e+00
        99         5        2.146600e+00
       100         5        1.145413e+00
;

param theta:=
    1        6.419634e-01
    2        9.186309e-01
    3       -1.750078e-01
    4        1.252109e-01
    5        3.253549e-01
;
param X_true:=
    1        2.293108e+00
    2        1.505559e+00
    3        1.163891e-01
    4        4.627734e-01
    5        2.986591e-01
    6        1.170380e+00
    7        6.883328e-01
    8       -1.418497e+00
    9       -8.249913e-01
   10       -2.593471e+00
   11        1.882749e+00
   12        5.481466e-01
   13       -3.505746e-02
   14        8.888697e-01
   15       -9.183139e-02
   16        3.248486e-01
   17        9.681703e-01
   18       -5.188223e-01
   19        2.104933e-01
   20        4.022190e-01
   21       -1.453333e+00
   22       -8.674511e-01
   23       -2.743653e+00
   24        3.768227e-01
   25        5.177251e-01
   26       -7.629680e-01
   27       -5.184323e-01
   28        6.380553e-01
   29       -1.142136e-01
   30       -1.863823e+00
   31       -5.413437e-01
   32       -5.740466e-01
   33       -1.154347e+00
   34       -6.522686e-01
   35        1.066048e+00
   36        1.471305e-01
   37        1.567720e+00
   38        4.531979e-01
   39        8.038072e-01
   40        6.074115e-01
   41       -7.621133e-01
   42        1.314052e+00
   43        5.725480e-01
   44        8.406025e-01
   45        1.752866e+00
   46       -1.349405e+00
   47       -3.179197e+00
   48       -1.486707e+00
   49        1.088290e+00
   50        2.577838e-01
   51       -9.088757e-01
   52       -1.854792e+00
   53        1.966304e+00
   54       -5.189607e-01
   55        1.012219e+00
   56       -9.227359e-01
   57       -8.852762e-01
   58        6.677871e-01
   59       -8.742279e-01
   60        1.615661e+00
   61        9.370411e-01
   62       -1.240654e+00
   63        1.826405e+00
   64       -1.229113e-02
   65        2.548139e+00
   66        1.371152e+00
   67       -6.030292e-01
   68       -5.029690e-01
   69        1.022626e+00
   70       -7.341786e-01
   71       -1.319329e+00
   72        1.871526e-02
   73        1.500627e+00
   74       -8.102379e-01
   75       -2.003388e+00
   76        3.938427e-01
   77        2.092272e+00
   78        7.477954e-01
   79        1.302617e+00
   80       -1.194142e+00
   81       -5.855608e-01
   82        6.422948e-02
   83        7.728560e-01
   84       -3.295353e-01
   85       -7.503192e-01
   86        1.029507e+00
   87        1.389241e+00
   88       -7.097440e-02
   89       -1.362047e+00
   90        1.276127e+00
   91       -1.177876e+00
   92        4.771324e-01
   93       -1.635989e+00
   94       -4.131541e-01
   95       -9.977633e-01
   96       -4.613041e-01
   97       -1.901053e+00
   98        3.376100e-01
   99       -3.082324e-02
  100        9.064313e-01
;
param X:=
    1        1.105826e-01
    2        5.249398e-01
    3        1.876456e-01
    4        1.732643e-01
    5        2.827233e-01
    6        1.170380e+00
    7       -8.371405e-02
    8        1.226922e+00
    9       -7.223351e-01
   10        3.823197e-01
   11        1.961409e+00
   12        8.910803e-01
   13        5.158456e-02
   14        8.799976e-01
   15       -9.183139e-02
   16       -5.559362e-01
   17       -4.470700e-01
   18       -7.909368e-01
   19       -3.412995e-01
   20       -1.805284e+00
   21       -4.719436e-01
   22       -8.674511e-01
   23       -2.743653e+00
   24        3.768227e-01
   25        8.033388e-01
   26       -9.321408e-01
   27        4.329843e-01
   28       -7.384100e-01
   29       -1.142136e-01
   30        9.478236e-01
   31       -3.014907e-01
   32        4.502233e-01
   33        4.764074e-02
   34       -6.522686e-01
   35       -7.605296e-01
   36        1.503993e-01
   37        1.370619e-01
   38       -3.051592e-01
   39       -7.851058e-01
   40       -5.571593e-01
   41        1.054138e+00
   42        6.460337e-01
   43       -2.028665e+00
   44        3.794649e-01
   45       -1.269223e+00
   46       -1.349405e+00
   47        8.209940e-01
   48        3.570801e-01
   49        1.947945e+00
   50        2.577838e-01
   51       -5.469963e-01
   52        9.131611e-01
   53        1.576132e+00
   54       -7.190774e-01
   55        8.494607e-01
   56       -2.525364e-01
   57       -8.852762e-01
   58       -2.438367e-01
   59       -3.508361e-01
   60        1.615661e+00
   61        9.370411e-01
   62        9.981749e-01
   63        1.161153e+00
   64       -1.229113e-02
   65        5.156984e-02
   66        4.374479e-01
   67       -1.319039e+00
   68        1.692092e-01
   69        1.357152e+00
   70        2.841934e-01
   71       -1.302617e+00
   72       -1.050727e+00
   73       -4.871328e-01
   74       -1.776894e-01
   75        3.884227e-01
   76       -1.198881e+00
   77       -2.993598e-01
   78        6.334663e-01
   79        4.367419e-02
   80       -1.194142e+00
   81        6.805480e-01
   82        2.813680e-01
   83        2.653419e-01
   84        6.501244e-01
   85       -2.768738e-01
   86       -7.579991e-01
   87       -1.239458e-02
   88       -9.279848e-01
   89       -1.442963e+00
   90        8.620358e-01
   91       -4.588183e-01
   92       -4.450361e-01
   93       -1.635989e+00
   94        2.830016e-01
   95        8.381351e-01
   96        1.375751e+00
   97        3.096892e-01
   98        1.616195e+00
   99        4.515933e-01
  100       -1.878388e+00
;
param outliervec:=
    1    1
    2    1
    3    1
    4    1
    5    1
    6    0
    7    1
    8    1
    9    1
   10    1
   11    1
   12    1
   13    1
   14    1
   15    0
   16    1
   17    1
   18    1
   19    1
   20    1
   21    1
   22    0
   23    0
   24    0
   25    1
   26    1
   27    1
   28    1
   29    0
   30    1
   31    1
   32    1
   33    1
   34    0
   35    1
   36    1
   37    1
   38    1
   39    1
   40    1
   41    1
   42    1
   43    1
   44    1
   45    1
   46    0
   47    1
   48    1
   49    1
   50    0
   51    1
   52    1
   53    1
   54    1
   55    1
   56    1
   57    0
   58    1
   59    1
   60    0
   61    0
   62    1
   63    1
   64    0
   65    1
   66    1
   67    1
   68    1
   69    1
   70    1
   71    1
   72    1
   73    1
   74    1
   75    1
   76    1
   77    1
   78    1
   79    1
   80    0
   81    1
   82    1
   83    1
   84    1
   85    1
   86    1
   87    1
   88    1
   89    1
   90    1
   91    1
   92    1
   93    0
   94    1
   95    1
   96    1
   97    1
   98    1
   99    1
  100    1
;